(set-info :source |
 Generated by Alive 0.1
 More info in N. P. Lopes, D. Menendez, S. Nagarakatte, J. Regehr.
 Provably Correct Peephole Optimizations with Alive. In PLDI'15.
|)

(set-info :status unknown)
(declare-fun C2 () (_ BitVec 33))
(declare-fun C1 () (_ BitVec 33))
(assert
 (let (($x250885 (and (and (distinct (bvxor C1 C2) (_ bv0 33)) true) (= (bvand (bvxor C1 C2) (bvsub (bvxor C1 C2) (_ bv1 33))) (_ bv0 33)))))
 (let (($x171816 (bvult C1 C2)))
 (and $x171816 $x250885 false))))
(check-sat)
